Normalized Data/p01_25_normalized_split0.vrp
NAME:p01_25_NORMALIZED_split
BEST_KNOWN: 0
COMMENT: 0
DIMENSION: 212
CAPACITY: 100
EDGE_WEIGHT_FORMAT: FUNCTION
EDGE_WEIGHT_TYPE: EXACT_2D
NODE_COORD_SECTION
1 0.00000 0.00000
2 32 -35
3 32 -35
4 32 -35
5 32 -35
6 39 16
7 39 16
8 39 16
9 39 16
10 -40 31
11 -40 31
12 -40 31
13 -40 31
14 -40 31
15 -40 31
16 -40 31
17 9 -6
18 9 -6
19 -29 -21
20 -29 -21
21 -29 -21
22 -29 -21
23 -29 -21
24 21 22
25 21 22
26 21 22
27 21 22
28 21 22
29 20 29
30 20 29
31 20 29
32 20 29
33 20 29
34 20 29
35 37 -14
36 37 -14
37 37 -14
38 37 -14
39 37 -14
40 37 -14
41 37 -14
42 -32 -50
43 -32 -50
44 -32 -50
45 -32 -50
46 -32 -50
47 -32 -50
48 -34 -27
49 -34 -27
50 -34 -27
51 -34 -27
52 -34 -27
53 -44 -6
54 -44 -6
55 -44 -6
56 5 -6
57 5 -6
58 5 -6
59 5 -6
60 5 -6
61 -42 36
62 -42 36
63 -42 36
64 27 49
65 27 49
66 27 49
67 27 49
68 34 40
69 34 40
70 34 40
71 34 40
72 46 -49
73 46 -49
74 46 -49
75 46 -49
76 46 -49
77 46 -49
78 -11 50
79 -11 50
80 -11 50
81 -11 50
82 -42 1
83 -42 1
84 -42 1
85 35 -6
86 35 -6
87 -27 -37
88 -27 -37
89 38 45
90 -49 -45
91 -49 -45
92 -49 -45
93 -49 -45
94 21 -14
95 21 -14
96 21 -14
97 21 -14
98 21 -14
99 31 20
100 31 20
101 31 20
102 31 20
103 -43 28
104 -43 28
105 -43 28
106 -43 28
107 -43 28
108 -40 8
109 -40 8
110 -40 8
111 -40 8
112 -40 8
113 -40 8
114 29 -12
115 29 -12
116 29 -12
117 29 -12
118 42 28
119 42 28
120 29 44
121 29 44
122 29 44
123 -34 23
124 -34 23
125 -34 23
126 -34 23
127 44 14
128 44 14
129 44 14
130 44 14
131 44 14
132 31 47
133 31 47
134 31 47
135 31 47
136 31 47
137 31 47
138 -21 41
139 -21 41
140 -21 41
141 -21 41
142 -21 41
143 -21 41
144 -40 32
145 5 13
146 5 13
147 5 13
148 5 13
149 13 -21
150 13 -21
151 -42 49
152 -42 49
153 -42 49
154 -42 49
155 -42 49
156 -3 -6
157 -3 -6
158 -3 -6
159 46 37
160 46 37
161 46 37
162 50 -29
163 50 -29
164 50 -29
165 50 -29
166 50 -29
167 -39 46
168 -39 46
169 -39 46
170 -13 18
171 -13 18
172 -13 18
173 -13 18
174 -15 -17
175 -15 -17
176 -15 -17
177 -47 32
178 -47 32
179 -47 32
180 42 -41
181 42 -41
182 42 -41
183 42 -41
184 42 -41
185 42 -41
186 42 -41
187 -28 2
188 -28 2
189 -28 2
190 -28 2
191 -28 2
192 -28 2
193 -7 3
194 -7 3
195 -7 3
196 31 30
197 31 30
198 31 30
199 31 30
200 31 30
201 26 0
202 26 0
203 26 0
204 26 0
205 26 0
206 26 0
207 26 0
208 -38 -39
209 -38 -39
210 -38 -39
211 -38 -39
212 -38 -39
DEMAND_SECTION
1 0
2 20
3 20
4 5
5 1
6 10
7 1
8 1
9 1
10 20
11 20
12 5
13 1
14 1
15 1
16 1
17 20
18 1
19 10
20 1
21 1
22 1
23 1
24 20
25 10
26 5
27 1
28 1
29 20
30 5
31 1
32 1
33 1
34 1
35 20
36 10
37 5
38 1
39 1
40 1
41 1
42 20
43 20
44 5
45 1
46 1
47 1
48 10
49 5
50 1
51 1
52 1
53 20
54 20
55 1
56 20
57 20
58 1
59 1
60 1
61 20
62 10
63 5
64 10
65 1
66 1
67 1
68 20
69 5
70 1
71 1
72 20
73 5
74 1
75 1
76 1
77 1
78 20
79 10
80 1
81 1
82 20
83 10
84 5
85 10
86 5
87 20
88 10
89 20
90 20
91 10
92 1
93 1
94 20
95 20
96 5
97 1
98 1
99 20
100 10
101 5
102 1
103 20
104 5
105 1
106 1
107 1
108 20
109 20
110 5
111 1
112 1
113 1
114 20
115 20
116 1
117 1
118 20
119 5
120 20
121 20
122 1
123 20
124 1
125 1
126 1
127 10
128 5
129 1
130 1
131 1
132 20
133 20
134 5
135 1
136 1
137 1
138 20
139 10
140 1
141 1
142 1
143 1
144 20
145 20
146 1
147 1
148 1
149 20
150 10
151 20
152 10
153 1
154 1
155 1
156 20
157 20
158 1
159 20
160 10
161 5
162 10
163 5
164 1
165 1
166 1
167 20
168 20
169 1
170 20
171 10
172 5
173 1
174 20
175 20
176 5
177 10
178 5
179 1
180 20
181 10
182 5
183 1
184 1
185 1
186 1
187 20
188 10
189 1
190 1
191 1
192 1
193 20
194 1
195 1
196 20
197 10
198 1
199 1
200 1
201 20
202 20
203 5
204 1
205 1
206 1
207 1
208 20
209 1
210 1
211 1
212 1
DEPOT_SECTION
1
-1
EOF