Normalized Data/p01_25_normalized_split0.sol
211 -4 2 1 3 36 37 34 38 202 201 203 -5 6 7 8 129 130 126 128 127 117 118 99 100 98 101 -13 10 9 14 12 11 15 60 61 62 177 178 176 -17 16 96 97 95 94 93 149 148 -21 19 20 18 22 209 208 210 211 207 92 90 89 91 48 50 49 47 51 187 188 189 -27 26 24 25 23 199 198 197 196 195 32 28 31 29 33 30 -35 39 40 162 163 165 164 161 71 72 75 74 73 76 179 184 185 182 181 183 180 -41 43 42 46 45 44 86 87 194 192 193 -54 52 53 81 83 82 190 186 191 -57 55 59 56 58 -64 63 65 66 132 133 88 158 160 159 -68 70 69 67 135 136 134 131 121 120 119 147 145 146 -78 77 80 79 142 139 140 141 138 137 169 170 172 -108 112 110 111 107 109 103 104 105 106 102 124 125 122 123 -114 113 115 116 84 85 205 206 200 204 144 -143 151 154 152 153 150 167 168 166 171 -156 155 157 174 173 175 0 





OBJ=
1772.801
BEST_KNOWN=
0.000